NAME 
ROWS
 N  OBJ
 L  R0      
 L  R1      
 E  R2      
 E  R3      
 E  R4      
 E  R5      
 E  R6      
 E  R7      
 E  R8      
 E  R9      
 E  R10     
 E  R11     
COLUMNS
    MARKER    'MARKER'                 'INTORG'
    I0(6)     OBJ       -72
    I0(6)     R0        -133
    I0(6)     R1        -141
    I0(6)     R2        4
    I0(6)     R4        11
    I0(6)     R5        7
    I0(6)     R11       1
    I1(5)     OBJ       -6
    I1(5)     R0        -61
    I1(5)     R1        -71
    I1(5)     R4        14
    I1(5)     R5        18
    I1(5)     R11       1
    I2(5)     OBJ       184
    I2(5)     R0        122
    I2(5)     R1        -128
    I2(5)     R3        7
    I2(5)     R5        14
    I2(5)     R11       1
    I3(6)     OBJ       193
    I3(6)     R0        -89
    I3(6)     R1        29
    I3(6)     R2        17
    I3(6)     R3        -1
    I3(6)     R4        3
    I3(6)     R11       1
    MARKER    'MARKER'                 'INTEND'
    C4(7)     OBJ       9
    C4(7)     R0        -3
    C4(7)     R1        9
    C4(7)     R6        15
    C4(7)     R7        17
    C4(7)     R8        8
    C4(7)     R9        1
    C4(7)     R10       8
    C5(4)     R0        5
    C5(4)     R1        -3
    C5(4)     R5        2
    C5(4)     R10       9
    C6(6)     OBJ       2
    C6(6)     R0        -5
    C6(6)     R1        -7
    C6(6)     R2        9
    C6(6)     R3        3
    C6(6)     R4        19
    C6(6)     R9        -1
    C7(9)     OBJ       -10
    C7(9)     R0        3
    C7(9)     R1        -4
    C7(9)     R2        14
    C7(9)     R3        18
    C7(9)     R4        14
    C7(9)     R5        12
    C7(9)     R7        18
    C7(9)     R9        17
    C7(9)     R10       14
    C8(6)     OBJ       -1
    C8(6)     R0        5
    C8(6)     R1        3
    C8(6)     R2        13
    C8(6)     R4        7
    C8(6)     R7        2
    C8(6)     R10       6
    C9(5)     OBJ       4
    C9(5)     R1        6
    C9(5)     R2        16
    C9(5)     R3        -1
    C9(5)     R5        15
    C9(5)     R10       16
    C10(1)    R2        1
    C11(1)    R3        1
    C12(1)    R4        1
    C13(1)    R5        1
    C14(1)    R6        1
    C15(1)    R7        1
    C16(1)    R8        1
    C17(1)    R9        1
    C18(1)    R10       1
    C19(1)    R11       1
RHS
    RHS1      R0        -1.2228571428571428e+02
    RHS1      R1        -1.5528571428571428e+02
    RHS1      R2        54
    RHS1      R3        96
    RHS1      R4        94
    RHS1      R5        52
    RHS1      R6        79
    RHS1      R7        86
    RHS1      R8        95
    RHS1      R9        77
    RHS1      R10       51
    RHS1      R11       1
BOUNDS
 UP BND1      I0(6)     1
 UP BND1      I1(5)     1
 UP BND1      I2(5)     1
 UP BND1      I3(6)     1
ENDATA
